************************************************************************
file with basedata            : md355_.bas
initial value random generator: 1280020751
************************************************************************
projects                      :  1
jobs (incl. supersource/sink ):  22
horizon                       :  143
RESOURCES
  - renewable                 :  2   R
  - nonrenewable              :  2   N
  - doubly constrained        :  0   D
************************************************************************
PROJECT INFORMATION:
pronr.  #jobs rel.date duedate tardcost  MPM-Time
    1     20      0       25       19       25
************************************************************************
PRECEDENCE RELATIONS:
jobnr.    #modes  #successors   successors
   1        1          3           2   3   4
   2        3          3           5   7  12
   3        3          3           7  11  15
   4        3          3           9  10  17
   5        3          1           6
   6        3          3           8  10  13
   7        3          3           9  18  20
   8        3          3           9  16  21
   9        3          1          19
  10        3          3          15  16  21
  11        3          3          12  16  18
  12        3          1          20
  13        3          2          14  19
  14        3          1          17
  15        3          1          19
  16        3          1          20
  17        3          1          18
  18        3          1          21
  19        3          1          22
  20        3          1          22
  21        3          1          22
  22        1          0        
************************************************************************
REQUESTS/DURATIONS:
jobnr. mode duration  R 1  R 2  N 1  N 2
------------------------------------------------------------------------
  1      1     0       0    0    0    0
  2      1     6       0    5    2    7
         2     7       5    0    2    6
         3     8       1    0    2    6
  3      1     4       7    0    9    1
         2     7       0    5    8    1
         3     9       6    0    8    1
  4      1     1       9    0    1    9
         2     3       8    0    1    9
         3     7       8    0    1    8
  5      1     1       4    0    6    6
         2     1       5    0    4    5
         3     6       0    6    4    5
  6      1     7       0    8    6    2
         2     7       6    0    6    2
         3     8       1    0    4    1
  7      1     2       0    4    6    7
         2     3       0    1    5    3
         3     3      10    0    4    4
  8      1     1       0    7    1    6
         2     2       7    0    1    5
         3     5       3    0    1    4
  9      1     3       6    0    8    9
         2     7       0    5    8    8
         3     8       0    3    7    8
 10      1     3       7    0    6    8
         2     7       2    0    5    4
         3     9       0    7    4    3
 11      1     4       0    6    7    6
         2     5       5    0    7    6
         3     7       3    0    4    2
 12      1     2       0    3    3    8
         2     3       4    0    2    5
         3     5       0    2    1    2
 13      1     2       4    0    6    2
         2     2       0    6    7    2
         3     7       0    5    2    2
 14      1     1       0    6    5    2
         2     8       0    5    5    2
         3    10       3    0    5    1
 15      1     1       8    0    9    8
         2     7       0    4    4    4
         3     7       6    0    6    5
 16      1     2       9    0    5    3
         2     3       8    0    5    3
         3    10       7    0    5    2
 17      1     1       0    4    6    7
         2     3       0    2    5    5
         3     7       9    0    4    4
 18      1     1       5    0    5    2
         2     4       4    0    4    1
         3     9       4    0    3    1
 19      1     2       6    0    5    7
         2     5       0    3    5    7
         3     7       6    0    4    6
 20      1     3       7    0    5    2
         2     4       6    0    4    1
         3     4       0    4    4    2
 21      1     6       5    0    4    5
         2     7       0    8    3    5
         3     7       4    0    3    4
 22      1     0       0    0    0    0
************************************************************************
RESOURCEAVAILABILITIES:
  R 1  R 2  N 1  N 2
   22   15   82   78
************************************************************************
MAXIMAL LAGS:
from  to  type  delay
    1   22   ES      0
    1    2   ES      0
    2   22   ES      0
    1    3   ES      0
    3   22   ES      0
    1    4   ES      0
    4   22   ES      0
    1    5   ES      0
    5   22   ES      0
    1    6   ES      0
    6   22   ES      0
    1    7   ES      0
    7   22   ES      0
    1    8   ES      0
    8   22   ES      0
    1    9   ES      0
    9   22   ES      0
    1   10   ES      0
   10   22   ES      0
    1   11   ES      0
   11   22   ES      0
    1   12   ES      0
   12   22   ES      0
    1   13   ES      0
   13   22   ES      0
    1   14   ES      0
   14   22   ES      0
    1   15   ES      0
   15   22   ES      0
    1   16   ES      0
   16   22   ES      0
    1   17   ES      0
   17   22   ES      0
    1   18   ES      0
   18   22   ES      0
    1   19   ES      0
   19   22   ES      0
    1   20   ES      0
   20   22   ES      0
    1   21   ES      0
   21   22   ES      0
    1   22   ES      0
    2    5   SS      0
    2    5   SE     10
    2    5   ES    -11
    2    5   EE     10
    2    7   SS      6
    2    7   SE     -4
    2    7   ES      5
    2    7   EE     -6
    2   12   SS     10
    2   12   SE      3
    2   12   ES      2
    2   12   EE     -3
    3    7   SS    -12
    3    7   SE     11
    3    7   ES     -8
    3    7   EE      6
    3   11   SS     11
    3   11   SE     -8
    3   11   ES      5
    3   11   EE      0
    3   15   SS     -3
    3   15   SE      9
    3   15   ES      8
    3   15   EE     -5
    4    9   SS     -6
    4    9   SE     12
    4    9   ES    -12
    4    9   EE     -8
    4   10   SS      1
    4   10   SE      8
    4   10   ES     -1
    4   10   EE     11
    4   17   SS    -12
    4   17   SE      6
    4   17   ES     11
    4   17   EE      8
    5    6   SS      6
    5    6   SE      0
    5    6   ES     10
    5    6   EE     -7
    6    8   SS     -9
    6    8   SE      5
    6    8   ES     -6
    6    8   EE      1
    6   10   SS      0
    6   10   SE      2
    6   10   ES      2
    6   10   EE     -9
    6   13   SS      7
    6   13   SE     11
   13    6   SE      0
    6   13   ES      0
    6   13   EE      1
    7    9   SS      1
    7    9   SE      1
    7    9   ES    -10
    7    9   EE    -12
    7   18   SS     -8
    7   18   SE     -2
    7   18   ES     11
    7   18   EE      0
    7   20   SS     -5
    7   20   SE     -4
    7   20   ES     -7
    7   20   EE    -11
    8    9   SS     -8
    8    9   SE     -8
    8    9   ES     -8
    8    9   EE      9
    8   16   SS     10
    8   16   SE     -5
    8   16   ES     -4
    8   16   EE      7
    8   21   SS      6
    8   21   SE      5
    8   21   ES    -11
    8   21   EE    -10
    9   19   SS     -6
    9   19   SE     11
    9   19   ES      2
    9   19   EE      1
   10   15   SS      5
   10   15   SE     -5
   10   15   ES      1
   10   15   EE      3
   10   16   SS     -1
   10   16   SE      7
   10   16   ES     11
   10   16   EE    -12
   10   21   SS     -9
   10   21   SE      3
   10   21   ES      2
   10   21   EE      7
   11   12   SS    -10
   11   12   SE     -2
   11   12   ES     -8
   11   12   EE      8
   11   16   SS     -3
   11   16   SE     -4
   11   16   ES      0
   11   16   EE     -9
   11   18   SS     -4
   11   18   SE     -3
   11   18   ES    -12
   11   18   EE      7
   12   20   SS     -7
   12   20   SE     -6
   12   20   ES     -5
   12   20   EE     12
   13   14   SS     -1
   13   14   SE    -10
   13   14   ES      2
   13   14   EE     -3
   13   19   SS      0
   13   19   SE     -1
   13   19   ES      1
   13   19   EE     -3
   14   17   SS     -8
   14   17   SE      0
   14   17   ES    -11
   14   17   EE     -9
   15   19   SS      5
   15   19   SE      0
   15   19   ES     -5
   15   19   EE      3
   16   20   SS     12
   16   20   SE     -8
   16   20   ES      0
   16   20   EE     -6
   17   18   SS    -10
   17   18   SE      6
   17   18   ES      6
   17   18   EE     12
   18   21   SS     -1
   18   21   SE     11
   18   21   ES      8
   18   21   EE      0
************************************************************************
